(set-info :smt-lib-version 2.6)
(set-logic QF_UFLRA)
(set-info :source |
MathSat group

|)
(set-info :category "random")
(set-info :status sat)
(declare-fun x0 () Real)
(declare-fun x1 () Real)
(declare-fun x2 () Real)
(declare-fun x3 () Real)
(declare-fun x4 () Real)
(declare-fun x5 () Real)
(declare-fun x6 () Real)
(declare-fun x7 () Real)
(declare-fun x8 () Real)
(declare-fun x9 () Real)
(declare-fun x10 () Real)
(declare-fun x11 () Real)
(declare-fun x12 () Real)
(declare-fun x13 () Real)
(declare-fun x14 () Real)
(declare-fun x15 () Real)
(declare-fun x16 () Real)
(declare-fun x17 () Real)
(declare-fun x18 () Real)
(declare-fun x19 () Real)
(declare-fun x20 () Real)
(declare-fun x21 () Real)
(declare-fun x22 () Real)
(declare-fun x23 () Real)
(declare-fun x24 () Real)
(declare-fun x25 () Real)
(declare-fun x26 () Real)
(declare-fun x27 () Real)
(declare-fun x28 () Real)
(declare-fun x29 () Real)
(declare-fun x30 () Real)
(declare-fun x31 () Real)
(declare-fun x32 () Real)
(declare-fun x33 () Real)
(declare-fun x34 () Real)
(declare-fun x35 () Real)
(declare-fun x36 () Real)
(declare-fun x37 () Real)
(declare-fun x38 () Real)
(declare-fun x39 () Real)
(declare-fun x40 () Real)
(declare-fun x41 () Real)
(declare-fun x42 () Real)
(declare-fun x43 () Real)
(declare-fun x44 () Real)
(declare-fun x45 () Real)
(declare-fun x46 () Real)
(declare-fun x47 () Real)
(declare-fun x48 () Real)
(declare-fun x49 () Real)
(declare-fun f0_1 (Real) Real)
(declare-fun f0_2 (Real Real) Real)
(declare-fun f0_3 (Real Real Real) Real)
(declare-fun f0_4 (Real Real Real Real) Real)
(declare-fun P0 () Bool)
(declare-fun P1 () Bool)
(declare-fun P2 () Bool)
(declare-fun P3 () Bool)
(declare-fun P4 () Bool)
(declare-fun P5 () Bool)
(declare-fun P6 () Bool)
(declare-fun P7 () Bool)
(declare-fun P8 () Bool)
(declare-fun P9 () Bool)
(declare-fun P10 () Bool)
(declare-fun P11 () Bool)
(declare-fun P12 () Bool)
(declare-fun P13 () Bool)
(declare-fun P14 () Bool)
(declare-fun P15 () Bool)
(declare-fun P16 () Bool)
(declare-fun P17 () Bool)
(declare-fun P18 () Bool)
(declare-fun P19 () Bool)
(declare-fun P20 () Bool)
(declare-fun P21 () Bool)
(declare-fun P22 () Bool)
(declare-fun P23 () Bool)
(declare-fun P24 () Bool)
(declare-fun P25 () Bool)
(declare-fun P26 () Bool)
(declare-fun P27 () Bool)
(declare-fun P28 () Bool)
(declare-fun P29 () Bool)
(declare-fun P30 () Bool)
(declare-fun P31 () Bool)
(declare-fun P32 () Bool)
(declare-fun P33 () Bool)
(declare-fun P34 () Bool)
(declare-fun P35 () Bool)
(declare-fun P36 () Bool)
(declare-fun P37 () Bool)
(declare-fun P38 () Bool)
(declare-fun P39 () Bool)
(declare-fun P40 () Bool)
(declare-fun P41 () Bool)
(declare-fun P42 () Bool)
(declare-fun P43 () Bool)
(declare-fun P44 () Bool)
(declare-fun P45 () Bool)
(declare-fun P46 () Bool)
(declare-fun P47 () Bool)
(declare-fun P48 () Bool)
(declare-fun P49 () Bool)
(assert (let ((?v_33 (* 23 x9))) (let ((?v_68 (<= (- (+ (* 3 x45) ?v_33) (* 25 x4)) 4)) (?v_101 (= (- (- (* 6 x8) (* 18 x29)) (* 15 x40)) 28)) (?v_1 (= (- (- (* 15 x24) (* 27 x41)) (* 10 x27)) 21)) (?v_179 (<= (+ (- (* 4 x8) (* 2 x2)) (* 13 x35)) 4)) (?v_7 (* 20 x22))) (let ((?v_10 (< (- (- (* 5 x13) (* 15 x39)) ?v_7) 16)) (?v_110 (= (- (+ (* 13 x33) (* 18 x8)) (* 15 x4)) 13)) (?v_191 (* 7 x13)) (?v_36 (distinct (- (+ (* 22 x20) (* 11 x22)) ?v_33) 17)) (?v_58 (<= (- (- (* 21 x4) (* 14 x8)) (* 27 x38)) 28)) (?v_22 (* 16 x24)) (?v_144 (= x20 (f0_2 x36 x12))) (?v_65 (f0_1 x31))) (let ((?v_231 (distinct x13 ?v_65)) (?v_86 (= x5 x36)) (?v_85 (= x48 (f0_1 x4))) (?v_40 (distinct (f0_2 x15 x38) x12)) (?v_78 (distinct (f0_1 x48) (f0_2 x38 x40))) (?v_130 (f0_1 x24))) (let ((?v_57 (= ?v_130 x45)) (?v_9 (= (f0_2 x7 x2) (f0_2 x22 x14))) (?v_24 (= (f0_1 x29) x32)) (?v_46 (distinct x40 x36)) (?v_150 (= x20 (f0_2 x17 x47))) (?v_206 (distinct x33 x44)) (?v_134 (f0_1 x3))) (let ((?v_69 (distinct x0 ?v_134)) (?v_12 (= x21 (f0_2 x35 x47))) (?v_159 (= (f0_1 x16) (f0_1 x11))) (?v_38 (f0_1 x39))) (let ((?v_92 (distinct ?v_38 (f0_2 x25 x46))) (?v_72 (distinct (f0_2 x11 x18) (f0_2 x11 x25))) (?v_18 (= (f0_1 x22) (f0_1 x40))) (?v_53 (distinct x38 (f0_1 x28))) (?v_61 (f0_1 x18))) (let ((?v_97 (= ?v_61 x8)) (?v_153 (distinct ?v_130 (f0_2 x1 x18))) (?v_52 (= x20 (f0_2 x39 x5))) (?v_90 (distinct x42 x14)) (?v_188 (distinct (f0_2 x0 x35) (f0_1 x19))) (?v_142 (distinct (f0_2 x15 x45) x33)) (?v_82 (distinct x23 x38)) (?v_218 (distinct x38 (f0_2 x2 x24))) (?v_79 (= (f0_1 x6) (f0_2 x13 x21))) (?v_81 (= (f0_2 x14 x8) x42)) (?v_0 (= x2 x22)) (?v_132 (= x25 x12)) (?v_26 (= ?v_65 (f0_1 x26))) (?v_193 (distinct x29 (f0_2 x12 x39))) (?v_96 (distinct (f0_2 x0 x6) x45)) (?v_27 (= (f0_1 x13) (f0_2 x26 x16))) (?v_162 (= (f0_2 x43 x20) x30)) (?v_95 (= (f0_2 x31 x26) ?v_61)) (?v_109 (= (f0_2 x4 x46) (f0_2 x37 x35))) (?v_119 (distinct x26 ?v_38)) (?v_135 (f0_1 x1))) (let ((?v_211 (= ?v_134 ?v_135)) (?v_103 (= x20 x48)) (?v_98 (= ?v_135 (f0_2 x42 x1))) (?v_108 (distinct (f0_2 x16 x43) (f0_1 x35))) (?v_25 (f0_1 x20))) (let ((?v_59 (= x3 ?v_25)) (?v_104 (= ?v_25 (f0_1 x12))) (?v_15 (= x30 x15)) (?v_190 (= (f0_2 x8 x7) (f0_2 x16 x27))) (?v_47 (= x29 (f0_1 x49))) (?v_41 (= (f0_2 x1 x17) ?v_38)) (?v_199 (= ?v_130 (f0_2 x31 x32))) (?v_14 (not ?v_27)) (?v_13 (not ?v_0)) (?v_136 (not P7)) (?v_77 (not P33)) (?v_172 (not P9)) (?v_45 (not ?v_119)) (?v_35 (not P12)) (?v_208 (not ?v_1)) (?v_224 (not ?v_57)) (?v_152 (not P40)) (?v_154 (not ?v_24)) (?v_11 (not P8)) (?v_44 (not ?v_142)) (?v_143 (not P37)) (?v_23 (not P36))) (let ((?v_30 (not ?v_15)) (?v_140 (not P34)) (?v_252 (not ?v_179)) (?v_16 (not P39)) (?v_62 (not ?v_10)) (?v_42 (not P21)) (?v_105 (not ?v_132)) (?v_70 (not P20)) (?v_56 (not ?v_12)) (?v_195 (not ?v_90)) (?v_34 (not P32)) (?v_121 (not ?v_18)) (?v_160 (not P17)) (?v_194 (not ?v_108)) (?v_31 (not P14)) (?v_66 (not ?v_98)) (?v_228 (not P41)) (?v_128 (not P22)) (?v_71 (not P15)) (?v_76 (not ?v_79)) (?v_67 (not ?v_97)) (?v_222 (not ?v_101)) (?v_201 (not ?v_40)) (?v_237 (not P27)) (?v_233 (not ?v_41)) (?v_87 (not P35)) (?v_149 (not ?v_36)) (?v_203 (not ?v_96)) (?v_64 (not P2)) (?v_51 (not P30)) (?v_146 (not ?v_47)) (?v_84 (not P5)) (?v_74 (not ?v_109)) (?v_100 (not ?v_58)) (?v_155 (not ?v_59)) (?v_215 (not ?v_231)) (?v_106 (not ?v_69)) (?v_139 (not P46)) (?v_118 (not ?v_68)) (?v_147 (not ?v_82)) (?v_113 (not P19)) (?v_137 (not P48)) (?v_167 (not P3)) (?v_176 (not P6)) (?v_181 (not ?v_78)) (?v_234 (not P24)) (?v_94 (not ?v_52)) (?v_226 (not P4)) (?v_186 (not ?v_81)) (?v_183 (not P45)) (?v_129 (not P18)) (?v_182 (not P0)) (?v_102 (not P29)) (?v_202 (not ?v_72)) (?v_223 (not ?v_53)) (?v_173 (not P26)) (?v_207 (not P47)) (?v_138 (not ?v_190)) (?v_111 (not ?v_103)) (?v_185 (not ?v_46)) (?v_116 (not ?v_104)) (?v_243 (not P11)) (?v_124 (not ?v_110)) (?v_158 (not P10)) (?v_213 (not ?v_85)) (?v_141 (not ?v_218)) (?v_189 (not P49)) (?v_133 (not P13)) (?v_250 (not P1)) (?v_196 (not ?v_95)) (?v_236 (not ?v_153)) (?v_164 (not P25)) (?v_168 (not ?v_92)) (?v_171 (not ?v_150)) (?v_156 (not ?v_199)) (?v_174 (not ?v_159)) (?v_205 (not P44)) (?v_220 (not ?v_162)) (?v_253 (not ?v_144)) (?v_216 (not P31)) (?v_235 (not ?v_26)) (?v_217 (not P23)) (?v_242 (not ?v_86)) (?v_254 (not ?v_193)) (?v_239 (not ?v_206)) (?v_229 (not ?v_188)) (?v_244 (not P16)) (?v_225 (not P28)) (?v_238 (not P38)) (?v_232 (not P43)) (?v_8 (< (+ (* 22 x19) x27 (* 14 x33)) 12)) (?v_131 (< (- (- 0 (* 7 x1)) (* 24 x48)) 5)) (?v_63 (<= (+ (* 7 x21) (* 3 x38) (* 16 x44)) 23))) (let ((?v_43 (not ?v_63)) (?v_3 (= (+ (* 19 x14) (* 14 x29) (* 22 x41)) 26)) (?v_60 (distinct (+ (- 0 (* 25 x41)) (* 23 x40)) 7))) (let ((?v_29 (not ?v_60)) (?v_2 (< (- 0 (* 15 x43)) 25))) (let ((?v_112 (not ?v_2)) (?v_93 (distinct (- 0 (* 17 x7)) 17)) (?v_17 (not ?v_3)) (?v_5 (= (+ (* 5 x38) (* 20 x19) (* 20 x4)) 3))) (let ((?v_55 (not ?v_5)) (?v_50 (not ?v_8)) (?v_28 (= (+ (* 5 x29) (* 25 x7) (* 9 x49)) 8)) (?v_125 (not ?v_93)) (?v_198 (<= (+ x31 (* 11 x1) (* 18 x37)) 7))) (let ((?v_251 (not ?v_198)) (?v_240 (not ?v_131)) (?v_256 (not ?v_28)) (?v_20 (< (+ (- (* (- 23) x20) 0) (* 7 x45)) (- 6))) (?v_6 (<= (- (+ (* 9 x38) (* 5 x10)) (* 3 x31)) (- 21))) (?v_114 (<= (- (- (* 4 x41) (* 16 x33)) 0) (- 11)))) (let ((?v_122 (not ?v_114)) (?v_75 (< (- (- (* (- 4) x5) (* 22 x38)) 0) 29)) (?v_4 (<= (+ (- (* (- 26) x44) (* 18 x46)) (* 8 x35)) (- 26)))) (let ((?v_145 (not ?v_4)) (?v_107 (< (+ (- (* (- 17) x46) ?v_7) (* 6 x12)) 3)) (?v_73 (distinct (- (- (* (- 8) x33) (* 15 x25)) (* 18 x35)) 10))) (let ((?v_99 (not ?v_73)) (?v_32 (= (+ (* 27 x36) (* 10 x26) (* 19 x42)) (- 27)))) (let ((?v_151 (not ?v_32)) (?v_37 (= (- (+ (* 14 x9) (* 2 x40)) (* 11 x13)) (- 2))) (?v_192 (< (+ (* 12 x26) ?v_22 (* 12 x2)) (- 3)))) (let ((?v_148 (not ?v_192)) (?v_115 (<= (- (- (* (- 23) x24) (* 4 x44)) (* 2 x45)) (- 9))) (?v_123 (< (+ (* (- 7) x10) (* 25 x34) (* 26 x35)) (- 24)))) (let ((?v_209 (not ?v_123)) (?v_19 (< (- (- (* (- 6) x7) (* 8 x43)) (* 14 x36)) (- 6))) (?v_48 (<= (- (- (* (- 25) x33) (* 6 x43)) (* 10 x4)) 16)) (?v_89 (<= (- (- (* (- 22) x4) 0) (* 2 x9)) (- 23)))) (let ((?v_39 (not ?v_89)) (?v_21 (not ?v_20)) (?v_54 (distinct (- (+ (* (- 20) x44) (* 6 x2)) ?v_22) (- 15))) (?v_49 (not ?v_37)) (?v_126 (<= (+ (* (- 18) x12) (* 16 x19) (* 20 x41)) (- 21)))) (let ((?v_249 (not ?v_126)) (?v_117 (not ?v_48)) (?v_88 (<= (+ (- (* (- 10) x20) (* 26 x49)) (* 26 x19)) (- 24))) (?v_120 (<= (+ (* (- 21) x6) (* 14 x41) (* 2 x41)) 2))) (let ((?v_80 (not ?v_120)) (?v_212 (not ?v_75)) (?v_83 (= (- (- (* 7 x16) (* 18 x6)) (* 22 x18)) (- 22)))) (let ((?v_91 (not ?v_83)) (?v_161 (<= (+ (- ?v_191 (* 16 x42)) (* 11 x7)) (- 16)))) (let ((?v_246 (not ?v_161)) (?v_200 (< (+ (* (- 3) x30) (* 22 x13) (* 10 x18)) 27)) (?v_127 (not ?v_88)) (?v_221 (= (+ (- (* (- 16) x20) (* 19 x35)) (* 12 x41)) (- 18))) (?v_210 (not ?v_115)) (?v_204 (<= (+ (- (* (- 8) x35) (* 8 x1)) (* 22 x22)) 8))) (let ((?v_178 (not ?v_204)) (?v_175 (< (+ (* (- 5) x38) (* 16 x11)) (- 8)))) (let ((?v_184 (not ?v_175)) (?v_197 (not ?v_54)) (?v_170 (<= (- (- (* (- 5) x16) (* 16 x12)) (* 13 x20)) 7)) (?v_166 (= (- (- (* 25 x45) (* 13 x19)) (* 26 x5)) (- 1))) (?v_180 (not ?v_107)) (?v_163 (< (- (+ (* (- 22) x27) (* 8 x29)) (* 21 x41)) (- 4))) (?v_157 (<= (- (* 22 x11) (* 26 x41)) (- 9)))) (let ((?v_177 (not ?v_157)) (?v_169 (not ?v_19)) (?v_165 (<= (+ (* (- 6) x26) (* 16 x16) (* 18 x26)) (- 8)))) (let ((?v_214 (not ?v_165)) (?v_247 (not ?v_166)) (?v_248 (not ?v_170)) (?v_187 (not ?v_163)) (?v_230 (<= (+ (- (* (- 27) x40) ?v_191) (* 23 x1)) (- 17)))) (let ((?v_219 (not ?v_230)) (?v_241 (not ?v_6)) (?v_227 (= (+ (- (* (- 5) x47) (* 10 x32)) (* 12 x46)) 9))) (let ((?v_257 (not ?v_227)) (?v_245 (not ?v_221)) (?v_255 (not ?v_200))) (and (and (and (and (and (and (and (and (and (and (and (and (and (and (and (and (and (and (and (and (and (and (and (and (and (and (and (and (and (and (and (and (and (and (and (and (and (and (and (and (and (and (and (and (and (and (and (and (and (and (and (and (and (and (and (and (and (and (and (and (and (and (and (and (and (and (and (and (and (and (and (and (and (and (and (and (and (and (and (and (and (and (and (and (and (and (and (and (and (and (and (and (and (and (and (and (and (and (and (and (and (and (and (and (and (and (and (and (and (and (and (and (and (and (and (and (and (and (and (and (and (and (and (and (and (and (and (and (and (and (and (and (and (and (and (and (and (and (and (and (and (and (and (and (and (and (and (and (and (and (and (and (and (and (and (and (and (and (and (and (and (and (and (and (and (and (and (and (and (and (and (and (and (and (and (and (and (and (and (and (and (and (and (and (and (and (and (and (and (and (and (and (and (and (and (and (and (and (and (and (and (and (and (and (and (and (and (and (and (and (and (and (and (and (and (and (and (and (and (and (and (and (and (and (and (and (and (and (and (and (and (and (and (and (and (and (and (and (and (and (and (and (and (and (and (and (and (and (and (and (and (and (and (and (and (and (and (and (and (and (and (and (and (and (and (and (and (and (and (and (and (and (and (and (and (and (and (and (and (and (and (and (and (and (and (and (and (and (and (and (and (and (and (and (and (and (and (and (and (and (and (and (and (and (and (and (and (and (and (and (and (and (and (and (and (and (and (and (and (and (and (and (and (and (and (and (and (and (and (and (and (and (and (and (and (and (and (and (and (and (and (and (and (and (and (and (and (and (and (and (and (and (and (and (and (and (and (and (and (and (and (and (and (and (and (and (and (and (and (and (and (and (and (and (and (and (and (and (and (and (and (and (and (and (and (and (and (and (and (and (and (and (and (and (and (and (and (and (and (and (and (and (and (and (and (and (and (and (and (and (and (and (and (and (and (and (and (and (and (and (and (and (and (and (and (and (and (and (and (and (and (and (and (and (and (and (and (and (and (and (and (and (and (and (and (and (and (and (and (and (and (and (and (and (and (and (and (and (and (and (and (and (and (and (and (and (and (and (and (and (and (and (and (and (and (and (and (and (and (and (and (and (and (and (and (and (and (and (and (and (and (and (and (and (and (and (and (and (and (and (and (and (and (and (and (and (and (and (and (and (and (and (and (and (and (and (and (and (and (and (and (and (and (and (and (and (and (and (and (and (and (and (and (and (and (and (and (and (and (and (and (and (and (and (and (and (and (and (and (and (and (and (and (and (and (and (and (and (and (and (and (and (and (and (and (and (and (and (and (and (and (and (and (and (and (and (and (and (and (and (and (and (and (and (and (and (and (and (and (and (and (and (and (and (and (and (and (and (and (or (or ?v_14 ?v_13) ?v_8) (or (or ?v_0 ?v_131) ?v_20)) (or (or P8 P2) ?v_136)) (or (or ?v_77 ?v_172) ?v_45)) (or (or ?v_35 ?v_208) ?v_224)) (or (or ?v_6 P30) ?v_122)) (or (or ?v_152 ?v_75) ?v_43)) (or (or P37 ?v_3) ?v_154)) (or (or ?v_11 P28) ?v_29)) (or (or ?v_145 ?v_112) ?v_107)) (or (or P41 ?v_93) ?v_44)) (or (or P28 ?v_143) ?v_99)) (or (or ?v_47 ?v_1) ?v_2)) (or (or ?v_40 ?v_17) ?v_55)) (or (or ?v_4 ?v_23) ?v_72)) (or (or ?v_30 ?v_151) ?v_140)) (or (or ?v_252 ?v_5) ?v_9)) (or (or ?v_6 ?v_37) ?v_16)) (or (or ?v_62 ?v_50) ?v_148)) (or (or ?v_42 ?v_105) (not ?v_9))) (or (or ?v_115 ?v_70) ?v_10)) (or (or ?v_11 ?v_4) ?v_3)) (or (or ?v_209 ?v_18) ?v_58)) (or (or P45 P42) ?v_12)) (or (or P33 P23) ?v_11)) (or (or P49 ?v_56) ?v_19)) (or (or ?v_48 ?v_13) ?v_39)) (or (or ?v_104 ?v_14) ?v_15)) (or (or ?v_195 ?v_16) ?v_13)) (or (or ?v_34 ?v_17) ?v_144)) (or (or ?v_26 P4) ?v_0)) (or (or ?v_28 P16) P3)) (or (or ?v_121 ?v_19) ?v_160)) (or (or ?v_162 ?v_194) ?v_31)) (or (or ?v_21 ?v_21) ?v_12)) (or (or P15 P26) ?v_54)) (or (or P31 P30) ?v_66)) (or (or ?v_23 ?v_24) ?v_59)) (or (or ?v_26 P40) ?v_27)) (or (or ?v_28 ?v_29) P3)) (or (or P7 ?v_228) ?v_128)) (or (or ?v_30 ?v_46) P48)) (or (or ?v_36 ?v_31) P32)) (or (or ?v_52 ?v_6) ?v_13)) (or (or ?v_32 ?v_71) ?v_76)) (or (or P28 ?v_67) ?v_68)) (or (or ?v_222 ?v_34) P10)) (or (or ?v_35 ?v_86) ?v_8)) (or (or P23 ?v_36) P32)) (or (or ?v_49 P20) ?v_85)) (or (or ?v_41 ?v_39) ?v_201)) (or (or ?v_237 P42) ?v_233)) (or (or P40 P11) ?v_42)) (or (or ?v_87 ?v_53) P6)) (or (or P14 P36) P0)) (or (or ?v_149 P38) P46)) (or (or ?v_249 ?v_203) ?v_13)) (or (or ?v_64 ?v_43) ?v_44)) (or (or ?v_51 ?v_45) ?v_81)) (or (or ?v_36 P2) P34)) (or (or ?v_46 ?v_146) ?v_34)) (or (or ?v_18 ?v_117) ?v_49)) (or (or ?v_84 ?v_50) ?v_88)) (or (or ?v_41 ?v_74) P25)) (or (or ?v_51 ?v_52) P42)) (or (or ?v_52 ?v_4) P13)) (or (or ?v_53 ?v_9) ?v_54)) (or (or ?v_188 ?v_80) ?v_55)) (or (or ?v_56 ?v_57) P25)) (or (or ?v_92 ?v_39) ?v_100)) (or (or ?v_155 ?v_60) ?v_95)) (or (or ?v_21 P32) ?v_62)) (or (or ?v_57 ?v_63) ?v_64)) (or (or ?v_215 ?v_50) ?v_66)) (or (or ?v_11 ?v_67) ?v_106)) (or (or ?v_139 P47) ?v_118)) (or (or ?v_11 ?v_69) ?v_70)) (or (or P19 P44) ?v_71)) (or (or ?v_72 P32) ?v_147)) (or (or P31 P31) ?v_55)) (or (or ?v_78 P44) ?v_73)) (or (or ?v_113 ?v_159) ?v_28)) (or (or P42 ?v_137) P39)) (or (or ?v_45 ?v_64) ?v_74)) (or (or ?v_212 ?v_167) ?v_76)) (or (or ?v_91 ?v_51) ?v_176)) (or (or P47 ?v_77) ?v_14)) (or (or ?v_31 P15) ?v_181)) (or (or ?v_37 ?v_79) ?v_234)) (or (or ?v_94 ?v_226) ?v_60)) (or (or P45 P2) ?v_80)) (or (or P37 ?v_246) ?v_186)) (or (or ?v_44 ?v_82) ?v_183)) (or (or P22 ?v_68) ?v_129)) (or (or ?v_200 P27) ?v_83)) (or (or ?v_84 ?v_19) ?v_182)) (or (or ?v_85 ?v_86) ?v_87)) (or (or P20 ?v_127) ?v_89)) (or (or ?v_90 ?v_103) ?v_102)) (or (or ?v_91 ?v_202) ?v_92)) (or (or ?v_125 ?v_94) ?v_95)) (or (or ?v_79 ?v_6) P21)) (or (or ?v_2 ?v_84) ?v_44)) (or (or ?v_110 ?v_96) ?v_223)) (or (or ?v_97 ?v_98) ?v_16)) (or (or ?v_99 ?v_88) ?v_50)) (or (or ?v_71 ?v_80) ?v_100)) (or (or ?v_35 ?v_97) ?v_173)) (or (or P37 ?v_101) ?v_77)) (or (or P26 ?v_94) P22)) (or (or ?v_207 ?v_138) ?v_102)) (or (or P26 ?v_111) ?v_221)) (or (or ?v_73 ?v_19) ?v_9)) (or (or ?v_185 P49) ?v_73)) (or (or P48 P29) P15)) (or (or ?v_54 ?v_116) ?v_105)) (or (or ?v_63 ?v_42) ?v_66)) (or (or P25 P28) ?v_43)) (or (or ?v_251 ?v_106) ?v_107)) (or (or P22 ?v_108) ?v_104)) (or (or ?v_109 P12) ?v_243)) (or (or ?v_124 P3) ?v_107)) (or (or ?v_111 ?v_158) ?v_84)) (or (or ?v_213 ?v_141) P16)) (or (or P47 ?v_81) ?v_62)) (or (or ?v_112 ?v_8) ?v_79)) (or (or P37 P34) ?v_113)) (or (or ?v_114 ?v_210) ?v_116)) (or (or ?v_117 ?v_118) P33)) (or (or ?v_77 ?v_74) ?v_189)) (or (or ?v_133 ?v_93) ?v_119)) (or (or ?v_112 ?v_36) ?v_178)) (or (or ?v_69 ?v_112) ?v_120)) (or (or ?v_121 ?v_120) P46)) (or (or P44 ?v_20) ?v_122)) (or (or P29 ?v_123) ?v_5)) (or (or ?v_124 ?v_125) ?v_36)) (or (or P46 ?v_87) P37)) (or (or ?v_126 ?v_36) ?v_92)) (or (or ?v_250 ?v_6) ?v_127)) (or (or ?v_122 ?v_86) ?v_29)) (or (or P39 ?v_79) ?v_128)) (or (or P17 ?v_63) ?v_14)) (or (or ?v_129 ?v_83) ?v_15)) (or (or ?v_101 ?v_96) P48)) (or (or P6 P10) P44)) (or (or ?v_196 ?v_126) ?v_236)) (or (or ?v_240 ?v_132) P38)) (or (or P30 ?v_133) ?v_211)) (or (or P44 ?v_14) P5)) (or (or ?v_95 P34) P6)) (or (or ?v_136 ?v_32) ?v_137)) (or (or ?v_120 ?v_32) ?v_138)) (or (or ?v_108 ?v_125) ?v_184)) (or (or ?v_197 ?v_51) ?v_139)) (or (or P32 ?v_119) ?v_95)) (or (or ?v_2 ?v_125) ?v_140)) (or (or ?v_80 ?v_141) P46)) (or (or ?v_170 P40) ?v_100)) (or (or ?v_166 ?v_180) ?v_104)) (or (or ?v_164 ?v_142) ?v_143)) (or (or ?v_9 P37) P24)) (or (or ?v_107 ?v_48) ?v_9)) (or (or ?v_144 P18) ?v_193)) (or (or P22 ?v_145) ?v_121)) (or (or ?v_168 P18) ?v_11)) (or (or ?v_146 ?v_163) ?v_177)) (or (or ?v_147 ?v_171) ?v_53)) (or (or ?v_148 ?v_156) ?v_169)) (or (or P20 ?v_104) ?v_149)) (or (or ?v_150 ?v_23) ?v_137)) (or (or ?v_150 ?v_151) P7)) (or (or ?v_5 ?v_45) ?v_129)) (or (or P12 ?v_152) ?v_128)) (or (or ?v_105 ?v_31) P31)) (or (or ?v_76 ?v_29) ?v_153)) (or (or P27 ?v_96) P29)) (or (or ?v_8 ?v_92) ?v_154)) (or (or ?v_155 ?v_49) ?v_156)) (or (or ?v_42 ?v_157) P26)) (or (or ?v_15 ?v_74) ?v_121)) (or (or ?v_158 ?v_26) ?v_174)) (or (or ?v_160 ?v_107) ?v_104)) (or (or ?v_138 ?v_143) ?v_18)) (or (or P26 ?v_67) ?v_124)) (or (or ?v_64 P34) P17)) (or (or ?v_157 ?v_128) ?v_64)) (or (or ?v_161 ?v_205) ?v_220)) (or (or ?v_163 ?v_73) ?v_36)) (or (or ?v_165 ?v_164) ?v_0)) (or (or ?v_146 ?v_5) ?v_145)) (or (or ?v_164 ?v_94) ?v_143)) (or (or ?v_214 ?v_4) ?v_60)) (or (or ?v_49 ?v_247) ?v_4)) (or (or ?v_132 ?v_167) ?v_168)) (or (or P9 ?v_69) ?v_169)) (or (or ?v_101 ?v_45) ?v_161)) (or (or ?v_36 ?v_148) ?v_114)) (or (or ?v_16 ?v_138) P47)) (or (or ?v_47 ?v_158) P24)) (or (or ?v_112 ?v_126) ?v_52)) (or (or ?v_128 P12) ?v_66)) (or (or ?v_248 ?v_171) P8)) (or (or ?v_253 ?v_3) P33)) (or (or ?v_20 ?v_63) P2)) (or (or P28 ?v_160) P1)) (or (or ?v_172 P49) P34)) (or (or ?v_71 ?v_169) ?v_121)) (or (or ?v_216 ?v_173) ?v_235)) (or (or ?v_4 ?v_19) ?v_174)) (or (or ?v_175 ?v_174) P47)) (or (or ?v_115 P46) ?v_144)) (or (or ?v_15 ?v_163) ?v_5)) (or (or ?v_145 ?v_14) ?v_176)) (or (or ?v_110 P14) ?v_177)) (or (or ?v_217 ?v_178) ?v_21)) (or (or ?v_141 P7) P42)) (or (or ?v_187 ?v_29) ?v_73)) (or (or ?v_70 ?v_141) ?v_179)) (or (or ?v_119 ?v_4) ?v_56)) (or (or ?v_49 ?v_53) ?v_242)) (or (or ?v_164 ?v_8) ?v_157)) (or (or ?v_131 ?v_110) ?v_180)) (or (or ?v_86 ?v_98) ?v_116)) (or (or ?v_73 ?v_118) ?v_181)) (or (or ?v_139 ?v_2) ?v_58)) (or (or ?v_148 ?v_140) ?v_47)) (or (or ?v_182 ?v_183) ?v_184)) (or (or ?v_166 ?v_168) P22)) (or (or ?v_42 ?v_116) ?v_126)) (or (or P34 ?v_180) ?v_149)) (or (or ?v_67 ?v_185) ?v_16)) (or (or ?v_186 ?v_120) ?v_187)) (or (or ?v_155 ?v_188) P42)) (or (or P48 P21) P31)) (or (or ?v_64 ?v_189) ?v_88)) (or (or ?v_107 ?v_185) P44)) (or (or ?v_16 ?v_36) ?v_187)) (or (or ?v_93 P4) ?v_190)) (or (or ?v_176 P25) ?v_42)) (or (or ?v_219 ?v_128) ?v_192)) (or (or ?v_254 P42) ?v_70)) (or (or ?v_71 ?v_49) ?v_59)) (or (or ?v_124 ?v_179) ?v_194)) (or (or ?v_113 ?v_2) P30)) (or (or ?v_195 ?v_196) ?v_11)) (or (or ?v_142 P42) ?v_47)) (or (or ?v_79 ?v_174) ?v_197)) (or (or ?v_125 ?v_5) ?v_152)) (or (or ?v_198 ?v_149) ?v_115)) (or (or ?v_199 ?v_200) P26)) (or (or ?v_201 ?v_140) ?v_164)) (or (or ?v_202 ?v_23) ?v_192)) (or (or P34 ?v_194) ?v_59)) (or (or ?v_203 ?v_204) ?v_107)) (or (or ?v_239 ?v_205) ?v_51)) (or (or ?v_184 ?v_102) ?v_41)) (or (or P16 ?v_206) ?v_49)) (or (or ?v_158 P7) ?v_68)) (or (or ?v_10 ?v_154) ?v_80)) (or (or ?v_13 ?v_207) ?v_72)) (or (or ?v_99 ?v_46) ?v_59)) (or (or ?v_153 P20) ?v_123)) (or (or ?v_181 ?v_173) ?v_53)) (or (or P29 ?v_95) ?v_189)) (or (or P23 ?v_45) ?v_89)) (or (or ?v_158 ?v_66) ?v_44)) (or (or ?v_106 ?v_92) ?v_28)) (or (or ?v_229 P34) ?v_52)) (or (or ?v_145 P48) P38)) (or (or ?v_164 ?v_119) P31)) (or (or P46 ?v_86) P37)) (or (or ?v_51 ?v_116) ?v_57)) (or (or ?v_208 ?v_43) ?v_209)) (or (or ?v_210 P16) P8)) (or (or ?v_108 ?v_244) ?v_208)) (or (or ?v_205 ?v_211) ?v_209)) (or (or ?v_123 ?v_207) ?v_52)) (or (or P24 ?v_73) ?v_212)) (or (or ?v_163 ?v_77) ?v_179)) (or (or ?v_164 ?v_29) ?v_169)) (or (or ?v_10 ?v_24) ?v_155)) (or (or ?v_119 ?v_46) ?v_81)) (or (or ?v_132 ?v_88) ?v_117)) (or (or P20 ?v_53) P22)) (or (or ?v_99 ?v_39) P44)) (or (or ?v_168 ?v_5) ?v_79)) (or (or ?v_69 ?v_148) ?v_203)) (or (or ?v_128 ?v_54) P16)) (or (or ?v_62 P14) ?v_213)) (or (or ?v_35 ?v_147) ?v_194)) (or (or ?v_29 ?v_199) ?v_132)) (or (or ?v_71 ?v_225) P13)) (or (or ?v_44 ?v_29) ?v_83)) (or (or ?v_35 ?v_187) (not P42))) (or (or ?v_214 P41) ?v_241)) (or (or ?v_170 ?v_215) P4)) (or (or ?v_4 ?v_185) P38)) (or (or ?v_52 P24) P25)) (or (or ?v_150 ?v_215) ?v_83)) (or (or ?v_23 ?v_73) ?v_28)) (or (or ?v_216 ?v_193) ?v_138)) (or (or ?v_217 ?v_218) ?v_24)) (or (or ?v_11 ?v_45) ?v_14)) (or (or ?v_219 ?v_127) ?v_81)) (or (or ?v_182 ?v_97) ?v_180)) (or (or ?v_101 ?v_10) ?v_100)) (or (or P44 ?v_31) ?v_220)) (or (or ?v_138 ?v_3) P37)) (or (or ?v_180 P20) ?v_20)) (or (or ?v_168 ?v_183) ?v_77)) (or (or ?v_28 P2) P41)) (or (or P25 ?v_75) ?v_89)) (or (or ?v_27 ?v_104) ?v_57)) (or (or ?v_16 ?v_206) ?v_221)) (or (or ?v_145 ?v_150) P22)) (or (or ?v_163 ?v_222) ?v_37)) (or (or ?v_97 P33) ?v_211)) (or (or ?v_196 P37) ?v_44)) (or (or ?v_223 ?v_224) ?v_21)) (or (or ?v_131 P42) ?v_52)) (or (or ?v_115 ?v_209) P37)) (or (or ?v_217 ?v_155) ?v_145)) (or (or P3 ?v_181) ?v_157)) (or (or ?v_101 ?v_50) ?v_225)) (or (or ?v_123 ?v_159) ?v_66)) (or (or ?v_87 P49) ?v_199)) (or (or P32 ?v_3) ?v_146)) (or (or P23 ?v_257) ?v_31)) (or (or ?v_217 ?v_26) ?v_176)) (or (or ?v_71 ?v_76) ?v_24)) (or (or ?v_142 ?v_238) ?v_226)) (or (or ?v_181 P19) ?v_30)) (or (or ?v_167 ?v_43) ?v_78)) (or (or ?v_169 ?v_227) ?v_101)) (or (or ?v_70 P34) ?v_120)) (or (or ?v_202 ?v_222) ?v_129)) (or (or ?v_215 ?v_112) ?v_175)) (or (or ?v_99 ?v_228) ?v_137)) (or (or ?v_229 ?v_5) ?v_17)) (or (or ?v_230 ?v_171) ?v_79)) (or (or ?v_62 ?v_63) ?v_184)) (or (or ?v_64 ?v_29) ?v_110)) (or (or ?v_231 ?v_73) ?v_55)) (or (or ?v_90 ?v_190) ?v_125)) (or (or ?v_160 ?v_72) ?v_100)) (or (or P18 P21) ?v_166)) (or (or ?v_73 ?v_9) ?v_156)) (or (or ?v_51 ?v_232) ?v_35)) (or (or P25 ?v_202) ?v_87)) (or (or ?v_132 ?v_190) P31)) (or (or P45 ?v_29) ?v_232)) (or (or ?v_181 ?v_45) ?v_220)) (or (or P13 ?v_87) P25)) (or (or ?v_6 P34) ?v_233)) (or (or ?v_132 ?v_208) ?v_4)) (or (or ?v_234 ?v_219) ?v_124)) (or (or P35 ?v_138) ?v_43)) (or (or ?v_233 P26) ?v_79)) (or (or ?v_10 ?v_66) P39)) (or (or ?v_189 ?v_101) ?v_100)) (or (or ?v_152 ?v_168) ?v_72)) (or (or ?v_216 P11) P6)) (or (or ?v_235 ?v_140) ?v_125)) (or (or ?v_236 ?v_142) ?v_232)) (or (or ?v_86 P11) ?v_69)) (or (or ?v_125 ?v_109) P37)) (or (or ?v_80 ?v_20) ?v_3)) (or (or ?v_74 ?v_91) ?v_79)) (or (or ?v_153 ?v_20) ?v_237)) (or (or ?v_99 ?v_51) ?v_54)) (or (or ?v_144 P9) ?v_10)) (or (or ?v_118 ?v_190) P47)) (or (or ?v_139 ?v_87) ?v_101)) (or (or ?v_220 ?v_31) ?v_76)) (or (or ?v_210 ?v_52) ?v_109)) (or (or ?v_92 ?v_8) ?v_188)) (or (or P27 ?v_48) ?v_49)) (or (or ?v_0 ?v_23) ?v_204)) (or (or P19 P38) ?v_17)) (or (or ?v_145 ?v_131) P15)) (or (or ?v_238 ?v_183) ?v_94)) (or (or ?v_26 ?v_107) ?v_239)) (or (or ?v_170 ?v_10) ?v_212)) (or (or ?v_169 ?v_239) ?v_240)) (or (or ?v_91 P49) P10)) (or (or ?v_81 ?v_97) P35)) (or (or ?v_137 P19) ?v_8)) (or (or ?v_4 ?v_97) ?v_88)) (or (or ?v_150 ?v_147) ?v_159)) (or (or ?v_89 ?v_57) ?v_62)) (or (or ?v_207 ?v_46) ?v_37)) (or (or ?v_241 ?v_51) ?v_149)) (or (or ?v_93 ?v_46) ?v_242)) (or (or ?v_136 P11) ?v_212)) (or (or ?v_243 ?v_62) ?v_227)) (or (or ?v_105 ?v_195) ?v_94)) (or (or ?v_57 ?v_190) ?v_148)) (or (or ?v_49 ?v_171) ?v_140)) (or (or ?v_8 ?v_139) P17)) (or (or ?v_8 ?v_141) ?v_89)) (or (or ?v_89 ?v_160) ?v_41)) (or (or ?v_39 ?v_107) ?v_97)) (or (or P49 ?v_16) ?v_17)) (or (or P37 P2) ?v_115)) (or (or P43 ?v_70) ?v_8)) (or (or ?v_184 ?v_229) ?v_171)) (or (or ?v_71 ?v_222) ?v_245)) (or (or ?v_208 ?v_222) P46)) (or (or ?v_244 ?v_122) ?v_40)) (or (or ?v_51 ?v_107) ?v_85)) (or (or ?v_23 ?v_27) P41)) (or (or ?v_89 P16) ?v_116)) (or (or ?v_181 ?v_138) ?v_218)) (or (or ?v_181 P5) ?v_31)) (or (or ?v_63 P39) ?v_132)) (or (or P1 ?v_96) ?v_52)) (or (or P16 ?v_123) ?v_44)) (or (or ?v_44 ?v_36) ?v_41)) (or (or ?v_204 P17) P49)) (or (or ?v_185 ?v_193) ?v_81)) (or (or ?v_201 ?v_245) ?v_255)) (or (or ?v_152 ?v_31) ?v_246)) (or (or ?v_247 ?v_204) ?v_19)) (or (or ?v_53 P23) ?v_18)) (or (or ?v_96 P16) ?v_248)) (or (or ?v_86 ?v_30) ?v_158)) (or (or ?v_249 ?v_41) ?v_115)) (or (or ?v_144 ?v_30) ?v_121)) (or (or ?v_102 ?v_236) ?v_2)) (or (or ?v_224 P13) ?v_45)) (or (or ?v_14 ?v_256) ?v_1)) (or (or ?v_201 ?v_141) ?v_125)) (or (or ?v_176 ?v_229) ?v_64)) (or (or ?v_250 ?v_129) ?v_207)) (or (or ?v_221 ?v_185) ?v_124)) (or (or ?v_89 ?v_203) P11)) (or (or ?v_80 ?v_125) ?v_51)) (or (or ?v_49 ?v_105) P24)) (or (or P31 ?v_13) ?v_60)) (or (or ?v_239 ?v_215) ?v_223)) (or (or ?v_179 P34) ?v_234)) (or (or ?v_221 P7) ?v_151)) (or (or ?v_8 P9) ?v_196)) (or (or ?v_131 ?v_251) ?v_116)) (or (or ?v_218 ?v_1) P28)) (or (or ?v_165 ?v_208) ?v_150)) (or (or ?v_236 ?v_118) ?v_42)) (or (or ?v_42 P38) ?v_203)) (or (or ?v_211 ?v_125) ?v_217)) (or (or ?v_40 ?v_45) ?v_59)) (or (or P29 P38) ?v_6)) (or (or P35 ?v_252) ?v_110)) (or (or P32 P3) ?v_87)) (or (or ?v_20 P19) ?v_158)) (or (or ?v_207 ?v_75) ?v_108)) (or (or ?v_111 ?v_83) P36)) (or (or ?v_6 ?v_83) ?v_181)) (or (or ?v_110 P42) ?v_229)) (or (or P40 ?v_129) ?v_197)) (or (or P10 ?v_160) P37)) (or (or ?v_227 ?v_137) ?v_5)) (or (or ?v_154 ?v_196) ?v_45)) (or (or ?v_64 ?v_252) ?v_40)) (or (or ?v_94 ?v_253) ?v_155)) (or (or ?v_82 ?v_208) ?v_88)) (or (or ?v_143 ?v_154) ?v_219)) (or (or ?v_205 ?v_184) ?v_1)) (or (or ?v_120 ?v_238) ?v_93)) (or (or ?v_58 ?v_88) P26)) (or (or ?v_223 ?v_5) ?v_18)) (or (or ?v_71 P10) ?v_105)) (or (or ?v_239 ?v_37) ?v_254)) (or (or P27 ?v_159) ?v_83)) (or (or ?v_51 ?v_13) ?v_119)) (or (or ?v_212 P16) ?v_180)) (or (or ?v_132 ?v_27) ?v_251)) (or (or ?v_251 ?v_44) ?v_104)) (or (or ?v_228 ?v_69) ?v_170)) (or (or ?v_255 P25) ?v_36)) (or (or ?v_248 ?v_139) P7)) (or (or ?v_175 ?v_159) ?v_104)) (or (or ?v_63 ?v_81) ?v_250)) (or (or ?v_112 ?v_29) ?v_181)) (or (or ?v_14 ?v_208) ?v_253)) (or (or ?v_208 ?v_18) ?v_101)) (or (or P20 ?v_196) ?v_227)) (or (or P22 ?v_217) ?v_226)) (or (or ?v_102 ?v_156) P38)) (or (or ?v_253 ?v_175) ?v_219)) (or (or P7 ?v_213) ?v_178)) (or (or ?v_4 ?v_132) ?v_114)) (or (or ?v_235 P2) ?v_41)) (or (or ?v_48 ?v_70) P6)) (or (or P17 ?v_70) ?v_114)) (or (or ?v_239 ?v_177) ?v_17)) (or (or ?v_161 ?v_221) ?v_27)) (or (or ?v_155 ?v_109) ?v_160)) (or (or P27 P2) P28)) (or (or ?v_8 ?v_160) P26)) (or (or ?v_201 ?v_174) ?v_141)) (or (or ?v_179 ?v_2) ?v_193)) (or (or ?v_230 ?v_222) ?v_68)) (or (or ?v_79 ?v_210) ?v_4)) (or (or ?v_101 ?v_225) ?v_247)) (or (or ?v_20 ?v_153) ?v_34)) (or (or ?v_114 ?v_101) ?v_45)) (or (or ?v_17 ?v_60) P14)) (or (or ?v_171 ?v_83) ?v_253)) (or (or ?v_60 P3) ?v_225)) (or (or ?v_71 ?v_178) ?v_177)) (or (or ?v_255 ?v_100) ?v_131)) (or (or ?v_73 ?v_82) ?v_76)) (or (or ?v_255 ?v_2) ?v_133)) (or (or ?v_87 ?v_203) ?v_214)) (or (or ?v_176 ?v_19) ?v_76)) (or (or P4 ?v_54) ?v_43)) (or (or ?v_162 ?v_141) ?v_91)) (or (or P26 ?v_77) ?v_85)) (or (or ?v_104 P27) ?v_81)) (or (or ?v_187 ?v_255) P31)) (or (or ?v_97 ?v_86) ?v_190)) (or (or ?v_96 ?v_53) ?v_202)) (or (or ?v_207 P41) ?v_52)) (or (or P35 P37) ?v_126)) (or (or ?v_66 ?v_116) ?v_241)) (or (or ?v_164 P41) ?v_177)) (or (or ?v_213 ?v_113) ?v_100)) (or (or P37 ?v_176) P3)) (or (or ?v_187 ?v_18) ?v_182)) (or (or ?v_122 ?v_256) ?v_140)) (or (or P17 ?v_49) ?v_8)) (or (or P16 ?v_87) ?v_190)) (or (or ?v_179 ?v_71) ?v_146)) (or (or ?v_166 ?v_233) P19)) (or (or ?v_143 ?v_150) P30)) (or (or ?v_198 ?v_44) P40)) (or (or ?v_108 P13) ?v_122)) (or (or ?v_57 P1) ?v_110)) (or (or P6 ?v_21) P42)) (or (or P43 ?v_164) ?v_146)) (or (or ?v_55 ?v_142) ?v_100)) (or (or ?v_132 ?v_161) ?v_179)) (or (or ?v_50 ?v_164) ?v_148)) (or (or P19 P48) ?v_23)) (or (or ?v_184 ?v_86) ?v_113)) (or (or ?v_140 ?v_231) P43)) (or (or ?v_31 P42) ?v_178)) (or (or ?v_153 ?v_185) ?v_174)) (or (or ?v_24 ?v_177) ?v_44)) (or (or ?v_160 ?v_10) ?v_174)) (or (or ?v_154 ?v_40) ?v_30)) (or (or ?v_89 ?v_195) ?v_137)) (or (or ?v_3 P8) ?v_179)) (or (or ?v_103 ?v_114) ?v_169)) (or (or ?v_104 P24) P43)) (or (or ?v_157 ?v_223) ?v_37)) (or (or P25 ?v_43) ?v_2)) (or (or ?v_248 P15) ?v_81)) (or (or ?v_19 ?v_40) ?v_58)) (or (or ?v_103 ?v_155) ?v_188)) (or (or P48 ?v_248) ?v_77)) (or (or ?v_251 ?v_49) P33)) (or (or ?v_40 P11) ?v_242)) (or (or P48 ?v_131) ?v_79)) (or (or ?v_39 ?v_119) ?v_66)) (or (or ?v_4 ?v_223) ?v_212)) (or (or ?v_13 ?v_28) ?v_108)) (or (or P41 ?v_98) ?v_74)) (or (or ?v_159 ?v_60) ?v_132)) (or (or ?v_128 P33) P11)) (or (or P5 ?v_14) ?v_48)) (or (or ?v_40 ?v_20) ?v_179)) (or (or P40 ?v_156) ?v_203)) (or (or ?v_143 P32) ?v_106)) (or (or ?v_192 ?v_228) ?v_10)) (or (or ?v_40 ?v_209) ?v_175)) (or (or ?v_119 ?v_204) ?v_243)) (or (or ?v_187 ?v_208) P47)) (or (or ?v_162 ?v_257) ?v_6)) (or (or ?v_93 P13) P38)) (or (or P43 ?v_234) ?v_222)) (or (or ?v_69 ?v_50) P32)) (or (or ?v_147 ?v_184) ?v_197)) (or (or ?v_119 ?v_234) P47)) (or (or ?v_249 ?v_235) ?v_245)) (or (or ?v_232 ?v_251) ?v_12)) (or (or ?v_186 ?v_88) ?v_215)) (or (or ?v_239 ?v_181) ?v_64)) (or (or ?v_50 ?v_102) ?v_226)) (or (or ?v_180 ?v_227) ?v_50)) (or (or ?v_111 P6) ?v_81)) (or (or ?v_244 ?v_240) ?v_137)) (or (or ?v_73 P39) ?v_207)) (or (or ?v_246 ?v_202) P31)) (or (or ?v_44 ?v_156) ?v_226)) (or (or P3 ?v_96) ?v_133)) (or (or ?v_109 ?v_102) ?v_198)) (or (or ?v_50 ?v_74) ?v_17)) (or (or ?v_35 ?v_115) ?v_207))))))))))))))))))))))))))))))))))))
(check-sat)
(exit)
